language ESSENCE' 1.0
$ minion Nodes: 3
$ minion TotalTime: 0.002182
$ Savile Row TotalTime: 1.36
letting x_SetExplicitVarSize_tuple2_tuple1_SetExplicit be [[6, 7;int(1..2)], 
[6, 7;int(1..2)];int(1..2)]
letting x_SetExplicitVarSize_tuple2_tuple3_SetExplicit be [[9;int(1..1)], 
[9;int(1..1)];int(1..2)]
letting x_SetExplicitVarSize_tuple2_tuple2 be [1, 3;int(1..2)]
letting x_SetExplicitVarSize_tuple1 be [false, true;int(1..2)]
